(declare-fun var0 () String)
(assert (RegexIn var0 (RegexConcat (RegexUnion (RegexStar (Str2Reg "ggg")) (RegexUnion (Str2Reg "h") (Str2Reg "iii"))) (RegexConcat (RegexUnion (RegexStar (Str2Reg "dd")) (RegexUnion (Str2Reg "e") (Str2Reg "f"))) (RegexConcat (RegexStar (RegexStar (Str2Reg "ccc"))) (RegexConcat (RegexPlus (RegexStar (Str2Reg "bbb"))) (RegexConcat (RegexPlus (RegexUnion (Str2Reg "9") (Str2Reg "aaa"))) (RegexConcat (RegexPlus (RegexPlus (Str2Reg "8"))) (RegexConcat (RegexPlus (RegexPlus (Str2Reg "777"))) (RegexConcat (RegexStar (RegexUnion (Str2Reg "55") (Str2Reg "666"))) (RegexConcat (RegexUnion (RegexUnion (Str2Reg "1") (Str2Reg "222")) (RegexUnion (Str2Reg "3") (Str2Reg "44"))) (RegexStar (RegexStar (Str2Reg "0"))))))))))))))
(assert (RegexIn var0 (RegexConcat (RegexStar (RegexPlus (Str2Reg "jjj"))) (RegexConcat (RegexStar (RegexUnion (Str2Reg "hh") (Str2Reg "i"))) (RegexConcat (RegexStar (RegexUnion (Str2Reg "fff") (Str2Reg "ggg"))) (RegexConcat (RegexPlus (RegexUnion (Str2Reg "d") (Str2Reg "eee"))) (RegexConcat (RegexStar (RegexStar (Str2Reg "cc"))) (RegexConcat (RegexPlus (RegexStar (Str2Reg "bb"))) (RegexConcat (RegexUnion (RegexStar (Str2Reg "888")) (RegexUnion (Str2Reg "99") (Str2Reg "aaa"))) (RegexConcat (RegexUnion (RegexUnion (Str2Reg "5") (Str2Reg "666")) (RegexPlus (Str2Reg "7"))) (RegexConcat (RegexUnion (RegexUnion (Str2Reg "22") (Str2Reg "333")) (RegexPlus (Str2Reg "44"))) (RegexPlus (RegexUnion (Str2Reg "0") (Str2Reg "1"))))))))))))))
(assert (RegexIn var0 (RegexConcat (RegexStar (RegexPlus (Str2Reg "g"))) (RegexConcat (RegexUnion (RegexPlus (Str2Reg "e")) (RegexPlus (Str2Reg "fff"))) (RegexConcat (RegexPlus (RegexUnion (Str2Reg "ccc") (Str2Reg "dd"))) (RegexConcat (RegexPlus (RegexUnion (Str2Reg "aaa") (Str2Reg "b"))) (RegexConcat (RegexStar (RegexStar (Str2Reg "9"))) (RegexConcat (RegexPlus (RegexUnion (Str2Reg "7") (Str2Reg "88"))) (RegexConcat (RegexPlus (RegexStar (Str2Reg "666"))) (RegexConcat (RegexPlus (RegexUnion (Str2Reg "4") (Str2Reg "5"))) (RegexConcat (RegexUnion (RegexPlus (Str2Reg "111")) (RegexUnion (Str2Reg "2") (Str2Reg "3"))) (RegexStar (RegexStar (Str2Reg "00"))))))))))))))
(assert (RegexIn var0 (RegexConcat (RegexUnion (RegexPlus (Str2Reg "ii")) (RegexUnion (Str2Reg "jjj") (Str2Reg "k"))) (RegexConcat (RegexUnion (RegexStar (Str2Reg "ff")) (RegexUnion (Str2Reg "g") (Str2Reg "h"))) (RegexConcat (RegexUnion (RegexUnion (Str2Reg "bb") (Str2Reg "ccc")) (RegexUnion (Str2Reg "dd") (Str2Reg "ee"))) (RegexConcat (RegexUnion (RegexStar (Str2Reg "8")) (RegexUnion (Str2Reg "9") (Str2Reg "aaa"))) (RegexConcat (RegexPlus (RegexUnion (Str2Reg "6") (Str2Reg "777"))) (RegexConcat (RegexPlus (RegexPlus (Str2Reg "5"))) (RegexConcat (RegexPlus (RegexPlus (Str2Reg "4"))) (RegexConcat (RegexStar (RegexStar (Str2Reg "333"))) (RegexConcat (RegexPlus (RegexUnion (Str2Reg "111") (Str2Reg "22"))) (RegexPlus (RegexStar (Str2Reg "00"))))))))))))))
(assert (RegexIn var0 (RegexConcat (RegexPlus (RegexPlus (Str2Reg "ggg"))) (RegexConcat (RegexPlus (RegexPlus (Str2Reg "ff"))) (RegexConcat (RegexStar (RegexPlus (Str2Reg "e"))) (RegexConcat (RegexUnion (RegexUnion (Str2Reg "aaa") (Str2Reg "bbb")) (RegexUnion (Str2Reg "ccc") (Str2Reg "d"))) (RegexConcat (RegexStar (RegexStar (Str2Reg "999"))) (RegexConcat (RegexPlus (RegexPlus (Str2Reg "8"))) (RegexConcat (RegexPlus (RegexPlus (Str2Reg "7"))) (RegexConcat (RegexUnion (RegexUnion (Str2Reg "4") (Str2Reg "555")) (RegexPlus (Str2Reg "6"))) (RegexConcat (RegexUnion (RegexPlus (Str2Reg "11")) (RegexUnion (Str2Reg "2") (Str2Reg "33"))) (RegexStar (RegexStar (Str2Reg "000"))))))))))))))
(assert (RegexIn var0 (RegexConcat (RegexPlus (RegexUnion (Str2Reg "dd") (Str2Reg "e"))) (RegexConcat (RegexPlus (RegexPlus (Str2Reg "ccc"))) (RegexConcat (RegexPlus (RegexStar (Str2Reg "bb"))) (RegexConcat (RegexPlus (RegexUnion (Str2Reg "999") (Str2Reg "aa"))) (RegexConcat (RegexPlus (RegexStar (Str2Reg "88"))) (RegexConcat (RegexStar (RegexStar (Str2Reg "777"))) (RegexConcat (RegexUnion (RegexUnion (Str2Reg "4") (Str2Reg "555")) (RegexStar (Str2Reg "66"))) (RegexConcat (RegexStar (RegexUnion (Str2Reg "22") (Str2Reg "333"))) (RegexConcat (RegexStar (RegexStar (Str2Reg "11"))) (RegexPlus (RegexStar (Str2Reg "0"))))))))))))))
(assert (RegexIn var0 (RegexConcat (RegexUnion (RegexPlus (Str2Reg "hh")) (RegexUnion (Str2Reg "i") (Str2Reg "j"))) (RegexConcat (RegexStar (RegexStar (Str2Reg "gg"))) (RegexConcat (RegexStar (RegexPlus (Str2Reg "ff"))) (RegexConcat (RegexPlus (RegexPlus (Str2Reg "e"))) (RegexConcat (RegexUnion (RegexPlus (Str2Reg "b")) (RegexUnion (Str2Reg "ccc") (Str2Reg "ddd"))) (RegexConcat (RegexUnion (RegexPlus (Str2Reg "9")) (RegexStar (Str2Reg "a"))) (RegexConcat (RegexUnion (RegexUnion (Str2Reg "55") (Str2Reg "666")) (RegexUnion (Str2Reg "7") (Str2Reg "888"))) (RegexConcat (RegexUnion (RegexStar (Str2Reg "33")) (RegexPlus (Str2Reg "44"))) (RegexConcat (RegexUnion (RegexStar (Str2Reg "11")) (RegexStar (Str2Reg "22"))) (RegexPlus (RegexStar (Str2Reg "00"))))))))))))))
(assert (RegexIn var0 (RegexConcat (RegexUnion (RegexPlus (Str2Reg "eee")) (RegexStar (Str2Reg "ff"))) (RegexConcat (RegexStar (RegexPlus (Str2Reg "d"))) (RegexConcat (RegexStar (RegexPlus (Str2Reg "c"))) (RegexConcat (RegexUnion (RegexStar (Str2Reg "999")) (RegexUnion (Str2Reg "aa") (Str2Reg "bb"))) (RegexConcat (RegexUnion (RegexStar (Str2Reg "7")) (RegexPlus (Str2Reg "888"))) (RegexConcat (RegexPlus (RegexStar (Str2Reg "666"))) (RegexConcat (RegexStar (RegexUnion (Str2Reg "4") (Str2Reg "5"))) (RegexConcat (RegexStar (RegexUnion (Str2Reg "22") (Str2Reg "3"))) (RegexConcat (RegexStar (RegexPlus (Str2Reg "1"))) (RegexPlus (RegexStar (Str2Reg "000"))))))))))))))
(assert (RegexIn var0 (RegexConcat (RegexStar (RegexStar (Str2Reg "ff"))) (RegexConcat (RegexPlus (RegexUnion (Str2Reg "dd") (Str2Reg "ee"))) (RegexConcat (RegexStar (RegexPlus (Str2Reg "ccc"))) (RegexConcat (RegexUnion (RegexUnion (Str2Reg "999") (Str2Reg "aa")) (RegexPlus (Str2Reg "bb"))) (RegexConcat (RegexStar (RegexPlus (Str2Reg "88"))) (RegexConcat (RegexUnion (RegexPlus (Str2Reg "6")) (RegexStar (Str2Reg "7"))) (RegexConcat (RegexStar (RegexPlus (Str2Reg "5"))) (RegexConcat (RegexStar (RegexStar (Str2Reg "4"))) (RegexConcat (RegexUnion (RegexStar (Str2Reg "2")) (RegexStar (Str2Reg "33"))) (RegexUnion (RegexPlus (Str2Reg "000")) (RegexStar (Str2Reg "11"))))))))))))))
(check-sat)